; benchmark generated from python API
(set-info :status unknown)
(declare-fun x_day () Int)
(declare-fun x_month () Int)
(declare-fun x_year () Int)
(declare-fun x_epoch () Int)
(declare-fun y_day () Int)
(declare-fun y_month () Int)
(declare-fun y_year () Int)
(declare-fun y_epoch () Int)
(declare-fun x_shift_period_11466_day () Int)
(declare-fun x_shift_period_11466_month () Int)
(declare-fun x_shift_period_11466_year () Int)
(declare-fun x_shift_period_11466_epoch () Int)
(declare-fun y_shift_period_13890_day () Int)
(declare-fun y_shift_period_13890_month () Int)
(declare-fun y_shift_period_13890_year () Int)
(declare-fun y_shift_period_13890_epoch () Int)
(assert
 (let (($x672 (= (mod x_year 4) 0)))
 (let (($x356 (= (mod x_year 100) 0)))
 (let (($x938 (= (mod x_year 400) 0)))
 (let (($x1010 (ite $x938 true (ite $x356 false $x672))))
 (let (($x652 (= x_month 9)))
 (let ((?x567 (ite $x652 243 (ite (= x_month 10) 273 (ite (= x_month 11) 304 334)))))
 (let (($x395 (= x_month 6)))
 (let ((?x112 (ite $x395 151 (ite (= x_month 7) 181 (ite (= x_month 8) 212 ?x567)))))
 (let (($x788 (= x_month 4)))
 (let ((?x235 (ite (= x_month 3) 59 (ite $x788 90 (ite (= x_month 5) 120 ?x112)))))
 (let (($x620 (= x_month 2)))
 (let (($x503 (= x_month 1)))
 (let ((?x943 (ite $x503 0 (ite $x620 31 ?x235))))
 (let ((?x1268 (- (+ (* 365 (- x_year 1)) (div (- x_year 1) 4)) (div (- x_year 1) 100))))
 (let ((?x328 (+ (+ ?x1268 (div (- x_year 1) 400)) (+ ?x943 (ite (and $x1010 (> x_month 2)) 1 0)))))
 (let (($x182 (<= x_year 2400)))
 (let (($x1406 (>= x_year 1600)))
 (let ((?x564 (ite (or $x788 $x395 $x652 (= x_month 11)) 30 31)))
 (let ((?x889 (ite $x620 (ite $x1010 29 28) ?x564)))
 (let (($x1426 (>= x_day 1)))
 (let (($x150 (<= x_month 12)))
 (let (($x1627 (>= x_month 1)))
 (and $x1627 $x150 $x1426 (<= x_day ?x889) $x1406 $x182 (= x_epoch (+ ?x328 (- x_day 1)))))))))))))))))))))))))))
(assert
 (let (($x855 (= (mod y_year 4) 0)))
 (let (($x310 (= (mod y_year 100) 0)))
 (let (($x441 (= (mod y_year 400) 0)))
 (let (($x1290 (ite $x441 true (ite $x310 false $x855))))
 (let (($x926 (= y_month 9)))
 (let ((?x3034 (ite $x926 243 (ite (= y_month 10) 273 (ite (= y_month 11) 304 334)))))
 (let (($x2940 (= y_month 6)))
 (let ((?x3469 (ite $x2940 151 (ite (= y_month 7) 181 (ite (= y_month 8) 212 ?x3034)))))
 (let (($x2900 (= y_month 4)))
 (let ((?x3046 (ite (= y_month 3) 59 (ite $x2900 90 (ite (= y_month 5) 120 ?x3469)))))
 (let (($x387 (= y_month 2)))
 (let (($x379 (= y_month 1)))
 (let ((?x3047 (ite $x379 0 (ite $x387 31 ?x3046))))
 (let ((?x3482 (- (+ (* 365 (- y_year 1)) (div (- y_year 1) 4)) (div (- y_year 1) 100))))
 (let ((?x440 (+ (+ ?x3482 (div (- y_year 1) 400)) (+ ?x3047 (ite (and $x1290 (> y_month 2)) 1 0)))))
 (let (($x1425 (<= y_year 2400)))
 (let (($x148 (>= y_year 1600)))
 (let ((?x1762 (ite (or $x2900 $x2940 $x926 (= y_month 11)) 30 31)))
 (let ((?x179 (ite $x387 (ite $x1290 29 28) ?x1762)))
 (let (($x582 (>= y_day 1)))
 (let (($x691 (<= y_month 12)))
 (let (($x818 (>= y_month 1)))
 (and $x818 $x691 $x582 (<= y_day ?x179) $x148 $x1425 (= y_epoch (+ ?x440 (- y_day 1)))))))))))))))))))))))))))
(assert
 (let (($x869 (= x_day 31)))
 (let (($x503 (= x_month 1)))
 (let (($x606 (= x_year 2020)))
 (and $x606 $x503 $x869)))))
(assert
 (let (($x3772 (= y_day 31)))
 (let (($x379 (= y_month 1)))
 (let (($x968 (= y_year 2019)))
 (and $x968 $x379 $x3772)))))
(assert
 (let (($x3744 (= (mod x_shift_period_11466_year 4) 0)))
 (let (($x351 (= (mod x_shift_period_11466_year 100) 0)))
 (let (($x2572 (= (mod x_shift_period_11466_year 400) 0)))
 (let (($x3750 (ite $x2572 true (ite $x351 false $x3744))))
 (let ((?x3704 (ite (= x_shift_period_11466_month 10) 273 (ite (= x_shift_period_11466_month 11) 304 334))))
 (let (($x3733 (= x_shift_period_11466_month 9)))
 (let ((?x3709 (ite (= x_shift_period_11466_month 7) 181 (ite (= x_shift_period_11466_month 8) 212 (ite $x3733 243 ?x3704)))))
 (let (($x3732 (= x_shift_period_11466_month 6)))
 (let (($x3764 (= x_shift_period_11466_month 4)))
 (let ((?x2633 (ite $x3764 90 (ite (= x_shift_period_11466_month 5) 120 (ite $x3732 151 ?x3709)))))
 (let (($x1848 (= x_shift_period_11466_month 2)))
 (let ((?x2392 (ite (= x_shift_period_11466_month 1) 0 (ite $x1848 31 (ite (= x_shift_period_11466_month 3) 59 ?x2633)))))
 (let ((?x2540 (+ ?x2392 (ite (and $x3750 (> x_shift_period_11466_month 2)) 1 0))))
 (let ((?x152 (+ (* 365 (- x_shift_period_11466_year 1)) (div (- x_shift_period_11466_year 1) 4))))
 (let ((?x2625 (+ (- ?x152 (div (- x_shift_period_11466_year 1) 100)) (div (- x_shift_period_11466_year 1) 400))))
 (let (($x3535 (= x_shift_period_11466_epoch (+ (+ ?x2625 ?x2540) (- x_shift_period_11466_day 1)))))
 (let (($x3724 (<= x_shift_period_11466_year 2400)))
 (let (($x3723 (>= x_shift_period_11466_year 1600)))
 (let ((?x930 (ite (or $x3764 $x3732 $x3733 (= x_shift_period_11466_month 11)) 30 31)))
 (let (($x3751 (>= x_shift_period_11466_day 1)))
 (let (($x3164 (<= x_shift_period_11466_month 12)))
 (let (($x2243 (>= x_shift_period_11466_month 1)))
 (and $x2243 $x3164 $x3751 (<= x_shift_period_11466_day (ite $x1848 (ite $x3750 29 28) ?x930)) $x3723 $x3724 $x3535))))))))))))))))))))))))
(assert
 (let ((?x1306 (* 12 x_year)))
 (let ((?x2663 (+ ?x1306 (- x_month 1))))
 (let ((?x2554 (+ ?x2663 1)))
 (let ((?x2694 (div ?x2554 12)))
 (= x_shift_period_11466_year ?x2694))))))
(assert
 (let ((?x2262 (+ (mod (+ (+ (* 12 x_year) (- x_month 1)) 1) 12) 1)))
 (= x_shift_period_11466_month ?x2262)))
(assert
 (let ((?x2262 (+ (mod (+ (+ (* 12 x_year) (- x_month 1)) 1) 12) 1)))
 (let ((?x1156 (ite (or (= ?x2262 4) (= ?x2262 6) (= ?x2262 9) (= ?x2262 11)) 30 31)))
 (let ((?x1306 (* 12 x_year)))
 (let ((?x2663 (+ ?x1306 (- x_month 1))))
 (let ((?x2554 (+ ?x2663 1)))
 (let ((?x2694 (div ?x2554 12)))
 (let (($x2337 (ite (= (mod ?x2694 400) 0) true (ite (= (mod ?x2694 100) 0) false (= (mod ?x2694 4) 0)))))
 (let ((?x3347 (ite (= ?x2262 2) (ite $x2337 29 28) ?x1156)))
 (let ((?x3136 (ite (<= x_day ?x3347) x_day ?x3347)))
 (let (($x737 (= x_month 11)))
 (let (($x652 (= x_month 9)))
 (let (($x395 (= x_month 6)))
 (let (($x788 (= x_month 4)))
 (let ((?x564 (ite (or $x788 $x395 $x652 $x737) 30 31)))
 (let (($x672 (= (mod x_year 4) 0)))
 (let (($x356 (= (mod x_year 100) 0)))
 (let (($x938 (= (mod x_year 400) 0)))
 (let (($x1010 (ite $x938 true (ite $x356 false $x672))))
 (let (($x620 (= x_month 2)))
 (let ((?x889 (ite $x620 (ite $x1010 29 28) ?x564)))
 (let (($x242 (= x_day ?x889)))
 (= x_shift_period_11466_day (ite false (ite $x242 ?x3347 ?x3136) ?x3136))))))))))))))))))))))))
(assert
 (let (($x1498 (= x_shift_period_11466_day 29)))
 (let (($x1848 (= x_shift_period_11466_month 2)))
 (let (($x1870 (= x_shift_period_11466_year 2020)))
 (and $x1870 $x1848 $x1498)))))
(assert
 (let (($x1976 (= (mod y_shift_period_13890_year 4) 0)))
 (let (($x2512 (= (mod y_shift_period_13890_year 100) 0)))
 (let (($x2119 (= (mod y_shift_period_13890_year 400) 0)))
 (let (($x686 (ite $x2119 true (ite $x2512 false $x1976))))
 (let ((?x3633 (ite (= y_shift_period_13890_month 10) 273 (ite (= y_shift_period_13890_month 11) 304 334))))
 (let (($x1499 (= y_shift_period_13890_month 9)))
 (let ((?x2492 (ite (= y_shift_period_13890_month 7) 181 (ite (= y_shift_period_13890_month 8) 212 (ite $x1499 243 ?x3633)))))
 (let (($x2127 (= y_shift_period_13890_month 6)))
 (let (($x3606 (= y_shift_period_13890_month 4)))
 (let ((?x2389 (ite $x3606 90 (ite (= y_shift_period_13890_month 5) 120 (ite $x2127 151 ?x2492)))))
 (let (($x575 (= y_shift_period_13890_month 2)))
 (let ((?x408 (ite (= y_shift_period_13890_month 1) 0 (ite $x575 31 (ite (= y_shift_period_13890_month 3) 59 ?x2389)))))
 (let ((?x2088 (+ ?x408 (ite (and $x686 (> y_shift_period_13890_month 2)) 1 0))))
 (let ((?x3636 (+ (* 365 (- y_shift_period_13890_year 1)) (div (- y_shift_period_13890_year 1) 4))))
 (let ((?x1485 (+ (- ?x3636 (div (- y_shift_period_13890_year 1) 100)) (div (- y_shift_period_13890_year 1) 400))))
 (let (($x723 (= y_shift_period_13890_epoch (+ (+ ?x1485 ?x2088) (- y_shift_period_13890_day 1)))))
 (let (($x1660 (<= y_shift_period_13890_year 2400)))
 (let (($x3076 (>= y_shift_period_13890_year 1600)))
 (let ((?x3314 (ite (or $x3606 $x2127 $x1499 (= y_shift_period_13890_month 11)) 30 31)))
 (let (($x2135 (>= y_shift_period_13890_day 1)))
 (let (($x1095 (<= y_shift_period_13890_month 12)))
 (let (($x1330 (>= y_shift_period_13890_month 1)))
 (and $x1330 $x1095 $x2135 (<= y_shift_period_13890_day (ite $x575 (ite $x686 29 28) ?x3314)) $x3076 $x1660 $x723))))))))))))))))))))))))
(assert
 (let ((?x3410 (+ (+ (* 12 y_year) (- y_month 1)) 1)))
 (let ((?x2600 (div ?x3410 12)))
 (= y_shift_period_13890_year ?x2600))))
(assert
 (let ((?x438 (+ (mod (+ (+ (* 12 y_year) (- y_month 1)) 1) 12) 1)))
 (= y_shift_period_13890_month ?x438)))
(assert
 (let ((?x438 (+ (mod (+ (+ (* 12 y_year) (- y_month 1)) 1) 12) 1)))
 (let ((?x1476 (ite (or (= ?x438 4) (= ?x438 6) (= ?x438 9) (= ?x438 11)) 30 31)))
 (let ((?x3410 (+ (+ (* 12 y_year) (- y_month 1)) 1)))
 (let ((?x2600 (div ?x3410 12)))
 (let (($x3074 (ite (= (mod ?x2600 400) 0) true (ite (= (mod ?x2600 100) 0) false (= (mod ?x2600 4) 0)))))
 (let ((?x3163 (ite (= ?x438 2) (ite $x3074 29 28) ?x1476)))
 (let ((?x1543 (ite (<= y_day ?x3163) y_day ?x3163)))
 (let (($x3457 (= y_month 11)))
 (let (($x926 (= y_month 9)))
 (let (($x2940 (= y_month 6)))
 (let (($x2900 (= y_month 4)))
 (let ((?x1762 (ite (or $x2900 $x2940 $x926 $x3457) 30 31)))
 (let (($x855 (= (mod y_year 4) 0)))
 (let (($x310 (= (mod y_year 100) 0)))
 (let (($x441 (= (mod y_year 400) 0)))
 (let (($x1290 (ite $x441 true (ite $x310 false $x855))))
 (let (($x387 (= y_month 2)))
 (let ((?x179 (ite $x387 (ite $x1290 29 28) ?x1762)))
 (= y_shift_period_13890_day (ite false (ite (= y_day ?x179) ?x3163 ?x1543) ?x1543)))))))))))))))))))))
(assert
 (let (($x2712 (= y_shift_period_13890_day 28)))
(let (($x575 (= y_shift_period_13890_month 2)))
(let (($x2773 (= y_shift_period_13890_year 2019)))
(and $x2773 $x575 $x2712)))))
(check-sat)
